* (set-option :incremental false)
* (set-info :status unsat)
* (set-logic QF_BV)
* (declare-fun v4 () (_ BitVec 16))
* (declare-fun dummy4 () (_ BitVec 1))
* (declare-fun a () (_ BitVec 16))
* (check-sat-assuming ( (and true true true (and (= ((_ extract 15 13) a) (concat ((_ extract 15 14) v4) dummy4)) (= ((_ extract 14 12) a) (concat dummy4 ((_ extract 13 12) v4)))) (not (= ((_ extract 14 14) v4) ((_ extract 13 13) v4)))) ))
* unsat
* #variable= 28 #constraint= 25
+1 x41 -1 x25 = 0;
+1 x17 -1 x1 = 0;
+1 x24 -1 x21 = 0;
+1 x18 -1 x2 = 0;
+1 x23 -1 x20 = 0;
+1 x25 -1 x22 = 0;
+1 x19 -1 x3 = 0;
+1 x40 -1 x24 = 0;
+1 x1 +2 x2 +4 x3 -1 x20 -2 x21 -4 x22 = 0;
+1 x39 -1 x49 = 0;
+1 x23 -1 x47 = 0;
+1 x49 -1 x46 = 0;
+1 x16 -1 x42 = 0;
+1 x48 -1 x45 = 0;
+1 x17 -1 x43 = 0;
+1 x38 -1 x48 = 0;
+1 x18 -1 x44 = 0;
+1 x42 +2 x43 +4 x44 -1 x45 -2 x46 -4 x47 = 0;
+1 x51 +1 x52 -1 x50 >= 0;
+1 x51 -1 x52 +1 x50 >= 0;
-1 x51 +1 x52 +1 x50 >= 0;
-1 x51 -1 x52 -1 x50 >= -2;
+1 x40 -1 x51 = 0;
+1 x39 -1 x52 = 0;
+1 x50 >= 1;
